p cnf 67 239
-1 2 -3 0
1 -2 -3 0
-1 -2 3 0
1 2 3 0
6 4 0
6 -5 0
-4 5 -6 0
-7 -3 0
-7 6 0
3 -6 7 0
-10 8 0
-10 -9 0
-8 9 10 0
-11 -9 -12 0
11 9 -12 0
-11 9 12 0
11 -9 12 0
-15 -13 0
-15 14 0
13 -14 15 0
16 -12 0
16 -15 0
12 15 -16 0
-17 16 0
-17 8 0
-16 -8 17 0
-4 -11 -18 0
4 11 -18 0
-4 11 18 0
4 -11 18 0
-19 -18 0
-19 -15 0
18 15 19 0
-20 17 0
-20 19 0
-17 -19 20 0
-21 10 0
-21 -20 0
-10 20 21 0
-7 21 -22 0
7 -21 -22 0
-7 -21 22 0
7 21 22 0
4 -3 -23 0
-4 3 -23 0
4 3 23 0
-4 -3 23 0
24 -6 0
24 13 0
6 -13 -24 0
25 -2 0
25 24 0
2 -24 -25 0
-26 -25 0
-26 -18 0
25 18 26 0
-27 26 0
-27 17 0
-26 -17 27 0
28 1 0
28 -14 0
-1 14 -28 0
29 28 0
29 9 0
-28 -9 -29 0
-30 -1 0
-30 -2 0
1 2 30 0
-31 -29 0
-31 -30 0
29 30 31 0
32 27 0
32 -31 0
-27 31 -32 0
33 2 0
33 -16 0
-2 16 -33 0
32 -33 -34 0
-32 33 -34 0
32 33 34 0
-32 -33 34 0
35 23 0
35 34 0
-23 -34 -35 0
-36 4 0
-36 -13 0
-4 13 36 0
-37 1 0
-37 -36 0
-1 36 37 0
38 -37 0
38 -2 0
37 2 -38 0
15 11 -39 0
-15 -11 -39 0
15 -11 39 0
-15 11 39 0
-40 38 0
-40 -39 0
-38 39 40 0
-41 9 0
-41 2 0
-9 -2 41 0
-6 13 -42 0
6 -13 -42 0
-6 -13 42 0
6 13 42 0
43 42 0
43 -13 0
-42 13 -43 0
-44 -41 0
-44 -43 0
41 43 44 0
45 2 0
45 15 0
-2 -15 -45 0
-47 -15 0
-47 46 0
15 -46 47 0
48 -45 0
48 -47 0
45 47 -48 0
-49 3 0
-49 31 0
-3 -31 49 0
-14 -27 -50 0
14 27 -50 0
-14 27 50 0
14 -27 50 0
-51 29 0
-51 13 0
-29 -13 51 0
-52 50 0
-52 -51 0
-50 51 52 0
-36 -28 -53 0
36 28 -53 0
-36 28 53 0
36 -28 53 0
54 -8 0
54 53 0
8 -53 -54 0
-55 -52 0
-55 54 0
52 -54 55 0
11 -56 0
-11 -56 0
30 56 -57 0
-30 -56 -57 0
30 -56 57 0
-30 56 57 0
26 57 -58 0
-26 -57 -58 0
26 -57 58 0
-26 57 58 0
59 55 0
59 -58 0
-55 58 -59 0
-49 59 -60 0
49 -59 -60 0
-49 -59 60 0
49 59 60 0
61 48 0
61 60 0
-48 -60 -61 0
62 44 0
62 61 0
-44 -61 -62 0
-56 -63 0
56 -63 0
-64 -62 0
-64 63 0
62 -63 64 0
-40 64 -65 0
40 -64 -65 0
-40 -64 65 0
40 64 65 0
66 35 0
66 65 0
-35 -65 -66 0
67 -22 0
67 66 0
22 -66 -67 0
67 -41 29 64 -38 0
-33 -34 -57 55 -38 59 0
64 12 46 -41 -42 0
-16 -19 56 0
-64 -56 -65 18 0
21 16 9 63 0
19 -53 7 4 0
49 8 0
-7 -25 23 0
33 -9 27 5 0
-32 42 52 24 -61 -27 0
-36 56 -29 -50 -54 -10 0
-56 5 -13 -42 39 0
12 -36 -59 -44 0
45 -23 -21 -9 0
-9 -16 -5 24 -26 -60 0
43 -8 54 -2 0
3 34 -27 55 0
-8 9 17 0
-59 -22 -41 -55 0
15 25 50 -61 0
13 53 16 -51 -5 7 0
21 -35 0
60 -64 0
-2 -26 -37 39 0
-3 -20 0
-33 53 -52 -65 -32 -13 0
-10 -20 0
20 -13 62 0
20 42 -3 -5 -50 0
50 -65 -43 22 0
63 -37 0
-3 49 26 25 -20 -54 0
-34 -53 -47 54 -61 0
13 -23 -44 -3 15 0
-10 19 -5 54 0
-5 20 21 -10 -14 52 0
-62 59 34 -63 -43 66 0
48 11 -54 5 0
-66 15 19 -5 0
12 -25 52 29 62 -55 0
52 -42 57 39 59 46 0
-13 -53 -52 39 0
-48 -60 -5 0
17 -12 57 10 -7 0
-51 26 3 65 0
20 8 -64 -4 24 -26 0
-45 -60 0
42 13 39 15 51 0
-42 -25 23 -58 21 0
-44 -24 -66 -50 0
62 -57 47 13 40 46 0
47 49 -4 0
-13 7 0
-5 -6 20 -2 36 43 0
67 0
